NAME : A-n12-k2
COMMENT : (Augerat et al, No of trucks: 2, Optimal value: 150)
TYPE : CVRP
DIMENSION : 12
EDGE_WEIGHT_TYPE : EUC_2D
CAPACITY : 100
NODE_COORD_SECTION
1 10 10
2 20 30
3 15 25
4 40 40
5 30 10
6 50 30
7 60 10
8 35 35
9 25 25
10 20 10
11 10 20
12 50 50
DEMAND_SECTION
1 0
2 10
3 15
4 10
5 25
6 20
7 15
8 10
9 5
10 20
11 10
12 15
DEPOT_SECTION
1
-1
EOF
